957441
954501
954501
938486
938486
938486
938486
912163
894443
894443
894443
866459
866459
866459
866459
866459
866459
816765
816765
816765
816765
816765
816765
816765
816765
813282
813282
813282
813282
813282
813282
813282
810415
800662
789784
789784
786090
786090
786090
781347
780647
780647
767180
751710
751710
745539
745539
745539
745539
742901
742901
742901
728880
721470
721470
721470
721470
721470
717786
717786
717786
715208
715208
709750
709750
699762
696026
693978
693978
687757
683572
677693
672773
672773
672773
672773
672773
672773
671399
671399
671399
644612
644612
644612
644612
644612
644612
644612
644612
644612
644612
644612
626204
626204
626204
626204
626204
626204
626204
626204
